p td 22 36
7 6
8 7
10 8
10 4
10 5
10 2
10 6
12 4
13 10
13 6
14 3
14 13
14 11
15 11
15 7
16 7
16 8
17 16
17 5
17 2
18 13
18 2
18 10
18 6
19 3
19 17
19 10
20 14
20 9
21 19
21 8
21 7
21 17
22 19
22 15
22 2
